Maximize
  17 x_English_workbooks + 15 x_math_workbooks
Subject To
  c1: x_math_workbooks >= 40
  c2: x_English_workbooks >= 60
  c3: x_math_workbooks <= 140
  c4: x_English_workbooks <= 170
  c5: x_math_workbooks + x_English_workbooks >= 200
End